words_hard_train/8879.qaiger
aag 180 24 0 1 156
2
4
8
14
18
24
30
36
40
48
58
72
92
108
124
144
202
218
226
242
258
274
290
306
361
6 2 4
10 8 4
12 7 11
16 12 15
20 16 19
22 21 4
26 23 25
28 27 4
32 29 31
34 32 4
38 34 37
42 38 41
44 39 40
46 43 45
50 48 8
52 10 3
54 11 2
56 53 55
60 57 58
62 51 61
64 56 59
66 63 65
68 13 14
70 69 17
74 71 73
76 70 72
78 75 77
80 66 78
82 81 77
84 17 4
86 85 19
88 84 18
90 87 89
94 91 93
96 90 92
98 95 97
100 83 98
102 101 97
104 22 24
106 105 27
110 107 109
112 106 108
114 111 113
116 103 114
118 117 113
120 28 30
122 121 33
126 123 125
128 122 124
130 127 129
132 119 130
134 133 129
136 33 4
138 137 37
140 136 36
142 139 141
146 143 145
148 142 144
150 147 149
152 135 150
154 153 149
156 46 155
158 47 154
160 157 159
162 82 99
164 163 101
166 61 65
168 166 51
170 49 9
172 171 167
174 169 173
176 67 79
178 177 81
180 174 179
182 165 180
184 102 115
186 185 117
188 182 187
190 118 131
192 191 133
194 188 193
196 134 151
198 197 153
200 194 199
204 200 202
206 201 203
208 205 207
210 160 208
212 161 209
214 211 213
216 171 51
220 216 218
222 170 166
224 223 173
228 224 227
230 225 226
232 229 231
234 220 232
236 235 231
238 175 178
240 239 181
244 241 243
246 240 242
248 245 247
250 237 248
252 251 247
254 164 181
256 255 183
260 257 259
262 256 258
264 261 263
266 253 264
268 267 263
270 183 186
272 271 189
276 273 275
278 272 274
280 277 279
282 269 280
284 283 279
286 189 192
288 287 195
292 289 291
294 288 290
296 293 295
298 285 296
300 299 295
302 195 198
304 303 201
308 305 307
310 304 306
312 309 311
314 301 312
316 315 311
318 215 316
320 214 317
322 319 321
324 252 265
326 325 267
328 236 249
330 329 251
332 327 331
334 233 219
336 334 217
338 337 235
340 268 281
342 341 283
344 339 343
346 284 297
348 347 299
350 344 349
352 300 313
354 353 315
356 350 355
358 332 356
360 323 359
i0 1 x2[1]
i1 1 x2[7]
i2 1 x2[0]
i3 1 x2[2]
i4 1 x2[3]
i5 1 x2[4]
i6 1 x2[5]
i7 1 x2[6]
i8 2 y1[7]
i9 2 y1[0]
i10 2 y1[1]
i11 2 y1[2]
i12 2 y1[3]
i13 2 y1[4]
i14 2 y1[5]
i15 2 y1[6]
i16 2 y2[7]
i17 2 y2[0]
i18 2 y2[1]
i19 2 y2[2]
i20 2 y2[3]
i21 2 y2[4]
i22 2 y2[5]
i23 2 y2[6]
o0 bv[0]
c
simplified
  <
    subtract
      2 y2
      add
        2 y1
        abs
          1 x2
    1
