words_hard_train/8879.qaiger.qdimacs
p cnf 180 469
a 1 2 4 7 9 12 15 18 0
e 3 5 6 8 10 11 13 14 16 17 19 20 21 22 23 24 25 26 27 28 29 30 31 32 33 34 35 36 37 38 39 40 41 42 43 44 45 46 47 48 49 50 51 52 53 54 55 56 57 58 59 60 61 62 63 64 65 66 67 68 69 70 71 72 73 74 75 76 77 78 79 80 81 82 83 84 85 86 87 88 89 90 91 92 93 94 95 96 97 98 99 100 101 102 103 104 105 106 107 108 109 110 111 112 113 114 115 116 117 118 119 120 121 122 123 124 125 126 127 128 129 130 131 132 133 134 135 136 137 138 139 140 141 142 143 144 145 146 147 148 149 150 151 152 153 154 155 156 157 158 159 160 161 162 163 164 165 166 167 168 169 170 171 172 173 174 175 176 177 178 179 180 0
-1 -2 3 0
1 -3 0
2 -3 0
-4 -2 5 0
4 -5 0
2 -5 0
3 5 6 0
-3 -6 0
-5 -6 0
-6 7 8 0
6 -8 0
-7 -8 0
-8 9 10 0
8 -10 0
-9 -10 0
10 -2 11 0
-10 -11 0
2 -11 0
11 12 13 0
-11 -13 0
-12 -13 0
13 -2 14 0
-13 -14 0
2 -14 0
14 15 16 0
-14 -16 0
-15 -16 0
-16 -2 17 0
16 -17 0
2 -17 0
-17 18 19 0
17 -19 0
-18 -19 0
-19 20 21 0
19 -21 0
-20 -21 0
19 -20 22 0
-19 -22 0
20 -22 0
21 22 23 0
-21 -23 0
-22 -23 0
-24 -4 25 0
24 -25 0
4 -25 0
-5 1 26 0
5 -26 0
-1 -26 0
5 -1 27 0
-5 -27 0
1 -27 0
26 27 28 0
-26 -28 0
-27 -28 0
28 -29 30 0
-28 -30 0
29 -30 0
25 30 31 0
-25 -31 0
-30 -31 0
-28 29 32 0
28 -32 0
-29 -32 0
31 32 33 0
-31 -33 0
-32 -33 0
6 -7 34 0
-6 -34 0
7 -34 0
34 8 35 0
-34 -35 0
-8 -35 0
35 36 37 0
-35 -37 0
-36 -37 0
-35 -36 38 0
35 -38 0
36 -38 0
37 38 39 0
-37 -39 0
-38 -39 0
-33 -39 40 0
33 -40 0
39 -40 0
40 38 41 0
-40 -41 0
-38 -41 0
8 -2 42 0
-8 -42 0
2 -42 0
42 9 43 0
-42 -43 0
-9 -43 0
-42 -9 44 0
42 -44 0
9 -44 0
43 44 45 0
-43 -45 0
-44 -45 0
45 46 47 0
-45 -47 0
-46 -47 0
-45 -46 48 0
45 -48 0
46 -48 0
47 48 49 0
-47 -49 0
-48 -49 0
41 -49 50 0
-41 -50 0
49 -50 0
50 48 51 0
-50 -51 0
-48 -51 0
-11 -12 52 0
11 -52 0
12 -52 0
52 13 53 0
-52 -53 0
-13 -53 0
53 54 55 0
-53 -55 0
-54 -55 0
-53 -54 56 0
53 -56 0
54 -56 0
55 56 57 0
-55 -57 0
-56 -57 0
51 -57 58 0
-51 -58 0
57 -58 0
58 56 59 0
-58 -59 0
-56 -59 0
-14 -15 60 0
14 -60 0
15 -60 0
60 16 61 0
-60 -61 0
-16 -61 0
61 62 63 0
-61 -63 0
-62 -63 0
-61 -62 64 0
61 -64 0
62 -64 0
63 64 65 0
-63 -65 0
-64 -65 0
59 -65 66 0
-59 -66 0
65 -66 0
66 64 67 0
-66 -67 0
-64 -67 0
16 -2 68 0
-16 -68 0
2 -68 0
68 18 69 0
-68 -69 0
-18 -69 0
-68 -18 70 0
68 -70 0
18 -70 0
69 70 71 0
-69 -71 0
-70 -71 0
71 72 73 0
-71 -73 0
-72 -73 0
-71 -72 74 0
71 -74 0
72 -74 0
73 74 75 0
-73 -75 0
-74 -75 0
67 -75 76 0
-67 -76 0
75 -76 0
76 74 77 0
-76 -77 0
-74 -77 0
-23 77 78 0
23 -78 0
-77 -78 0
23 -77 79 0
-23 -79 0
77 -79 0
78 79 80 0
-78 -80 0
-79 -80 0
-41 49 81 0
41 -81 0
-49 -81 0
81 50 82 0
-81 -82 0
-50 -82 0
30 32 83 0
-30 -83 0
-32 -83 0
-83 25 84 0
83 -84 0
-25 -84 0
24 4 85 0
-24 -85 0
-4 -85 0
85 83 86 0
-85 -86 0
-83 -86 0
84 86 87 0
-84 -87 0
-86 -87 0
33 39 88 0
-33 -88 0
-39 -88 0
88 40 89 0
-88 -89 0
-40 -89 0
-87 89 90 0
87 -90 0
-89 -90 0
82 -90 91 0
-82 -91 0
90 -91 0
-51 57 92 0
51 -92 0
-57 -92 0
92 58 93 0
-92 -93 0
-58 -93 0
-91 93 94 0
91 -94 0
-93 -94 0
-59 65 95 0
59 -95 0
-65 -95 0
95 66 96 0
-95 -96 0
-66 -96 0
-94 96 97 0
94 -97 0
-96 -97 0
-67 75 98 0
67 -98 0
-75 -98 0
98 76 99 0
-98 -99 0
-76 -99 0
-97 99 100 0
97 -100 0
-99 -100 0
-100 -101 102 0
100 -102 0
101 -102 0
100 101 103 0
-100 -103 0
-101 -103 0
102 103 104 0
-102 -104 0
-103 -104 0
-80 -104 105 0
80 -105 0
104 -105 0
80 104 106 0
-80 -106 0
-104 -106 0
105 106 107 0
-105 -107 0
-106 -107 0
85 25 108 0
-85 -108 0
-25 -108 0
-108 -109 110 0
108 -110 0
109 -110 0
-85 -83 111 0
85 -111 0
83 -111 0
111 86 112 0
-111 -112 0
-86 -112 0
-112 113 114 0
112 -114 0
-113 -114 0
112 -113 115 0
-112 -115 0
113 -115 0
114 115 116 0
-114 -116 0
-115 -116 0
-110 -116 117 0
110 -117 0
116 -117 0
117 115 118 0
-117 -118 0
-115 -118 0
87 -89 119 0
-87 -119 0
89 -119 0
119 90 120 0
-119 -120 0
-90 -120 0
120 121 122 0
-120 -122 0
-121 -122 0
-120 -121 123 0
120 -123 0
121 -123 0
122 123 124 0
-122 -124 0
-123 -124 0
118 -124 125 0
-118 -125 0
124 -125 0
125 123 126 0
-125 -126 0
-123 -126 0
-82 90 127 0
82 -127 0
-90 -127 0
127 91 128 0
-127 -128 0
-91 -128 0
128 129 130 0
-128 -130 0
-129 -130 0
-128 -129 131 0
128 -131 0
129 -131 0
130 131 132 0
-130 -132 0
-131 -132 0
126 -132 133 0
-126 -133 0
132 -133 0
133 131 134 0
-133 -134 0
-131 -134 0
91 -93 135 0
-91 -135 0
93 -135 0
135 94 136 0
-135 -136 0
-94 -136 0
136 137 138 0
-136 -138 0
-137 -138 0
-136 -137 139 0
136 -139 0
137 -139 0
138 139 140 0
-138 -140 0
-139 -140 0
134 -140 141 0
-134 -141 0
140 -141 0
141 139 142 0
-141 -142 0
-139 -142 0
94 -96 143 0
-94 -143 0
96 -143 0
143 97 144 0
-143 -144 0
-97 -144 0
144 145 146 0
-144 -146 0
-145 -146 0
-144 -145 147 0
144 -147 0
145 -147 0
146 147 148 0
-146 -148 0
-147 -148 0
142 -148 149 0
-142 -149 0
148 -149 0
149 147 150 0
-149 -150 0
-147 -150 0
97 -99 151 0
-97 -151 0
99 -151 0
151 100 152 0
-151 -152 0
-100 -152 0
152 153 154 0
-152 -154 0
-153 -154 0
-152 -153 155 0
152 -155 0
153 -155 0
154 155 156 0
-154 -156 0
-155 -156 0
150 -156 157 0
-150 -157 0
156 -157 0
157 155 158 0
-157 -158 0
-155 -158 0
107 -158 159 0
-107 -159 0
158 -159 0
-107 158 160 0
107 -160 0
-158 -160 0
159 160 161 0
-159 -161 0
-160 -161 0
-126 132 162 0
126 -162 0
-132 -162 0
162 133 163 0
-162 -163 0
-133 -163 0
-118 124 164 0
118 -164 0
-124 -164 0
164 125 165 0
-164 -165 0
-125 -165 0
163 165 166 0
-163 -166 0
-165 -166 0
116 109 167 0
-116 -167 0
-109 -167 0
-167 108 168 0
167 -168 0
-108 -168 0
168 117 169 0
-168 -169 0
-117 -169 0
-134 140 170 0
134 -170 0
-140 -170 0
170 141 171 0
-170 -171 0
-141 -171 0
169 171 172 0
-169 -172 0
-171 -172 0
-142 148 173 0
142 -173 0
-148 -173 0
173 149 174 0
-173 -174 0
-149 -174 0
-172 174 175 0
172 -175 0
-174 -175 0
-150 156 176 0
150 -176 0
-156 -176 0
176 157 177 0
-176 -177 0
-157 -177 0
-175 177 178 0
175 -178 0
-177 -178 0
-166 -178 179 0
166 -179 0
178 -179 0
161 179 180 0
-161 -180 0
-179 -180 0
-180 0
